benchmark_str_length/p2_10_6-1.dzn
Alphabet = {A,C,G,T};
ns = 10;
nc = 5;
sl = 5;
neighbours = [| I(T),I(G),I(G),I(A),Null | I(A),I(G),I(T),I(T),I(A) | I(C),Null,Null,Null,Null | I(G),I(C),I(A),Null,Null | I(C),I(A),I(T),I(A),Null | I(T),I(G),I(G),Null,Null | I(T),I(A),I(T),I(T),Null | I(C),Null,Null,Null,Null | I(C),Null,Null,Null,Null | Null,Null,Null,Null,Null |];
