benchmark_str_length/p2_10_6-1.txt
{
	"num_strings": 10,
	"alphabet": "ACGT",
	"strings": [
		"TGGA",
		"AGTTA",
		"C",
		"GCA",
		"CATA",
		"TGG",
		"TATT",
		"C",
		"C",
		""
	],
	"str_length":[4,5,1,3,4,3,4,1,1,0]
}